
Log started (V11.0.0) Mon May 19 16:46:56 2008

Tried aggregator 1 time.
Reduced MIP has 550 rows, 25001 columns, and 50050 nonzeros.
Presolve time =    0.19 sec.
Clique table members: 500.
MIP emphasis: balance optimality and feasibility.
MIP search method: dynamic search.
Parallel mode: none, using 1 thread.
Root relaxation solution time =    2.19 sec.

        Nodes                                         Cuts/
   Node  Left     Objective  IInf  Best Integer     Best Node    ItCnt     Gap

*     0+    0                        51177.0000      233.2715     1048   99.54%
*     0+    0                          307.0000      233.2715     1048   24.02%
      0     0      234.0000    84      307.0000      Fract: 6     1081   23.78%
*     0+    0                          281.0000      234.0000     1081   16.73%
      0     0      234.0000    88      281.0000   ZeroHalf: 2     1110   16.73%
*     0+    0                          271.0000      234.0000     1110   13.65%
      0     0      234.0000    94      271.0000       Cuts: 6     1188   13.65%
*     0+    0                          270.0000      234.0000     1188   13.33%
*     0+    0                          265.0000      234.0000     1188   11.70%
*     0+    0                          264.0000      234.0000     1188   11.36%
*     0+    0                          255.0000      234.0000     1188    8.24%
*     0+    0                          254.0000      234.0000     1188    7.87%
      0     2      234.0000    94      254.0000      234.0000     1188    7.87%
*    20+   19                          253.0000      234.0000     1677    7.51%
*    30+   29                          252.0000      234.0000     1745    7.14%
*    30+   29                          251.0000      234.0000     1745    6.77%
*    40+   38                          250.0000      234.0000     2155    6.40%
*    50+   45                          249.0000      234.0000     2640    6.02%
*    60+   51                          248.0000      234.0000     3223    5.65%
    100    77      235.0726    81      248.0000      234.0000     5832    5.65%
*   150+  109                          247.0000      234.0000     9644    5.26%
*   170+  119                          246.0000      234.0000    10976    4.88%
    200   138      235.0000    78      246.0000      234.0000    13711    4.88%
    300   194      235.0000    80      246.0000      234.0000    24368    4.88%
    400   256      235.2950    84      246.0000      234.0000    34238    4.88%
    500   317      235.3266    83      246.0000      234.0000    43034    4.88%
*   513+  216                          245.0000      243.8693    47143    0.46%

Cover cuts applied:  57
Mixed integer rounding cuts applied:  2
Gomory fractional cuts applied:  1

Solution pool: 18 solutions saved.

MIP - Integer optimal solution:  Objective = 2.4500000000e+002
Solution time =   93.88 sec.  Iterations = 47153  Nodes = 513 (216)


Incumbent solution
Variable Name           Solution Value
Cmax                        245.000000
X_1_42                        1.000000
X_2_37                        1.000000
X_3_47                        1.000000
X_4_32                        1.000000
X_5_43                        1.000000
X_6_15                        1.000000
X_7_31                        1.000000
X_8_19                        1.000000
X_9_20                        1.000000
X_10_6                        1.000000
X_11_13                       1.000000
X_12_48                       1.000000
X_13_48                       1.000000
X_14_42                       1.000000
X_15_37                       1.000000
X_16_45                       1.000000
X_17_21                       1.000000
X_18_27                       1.000000
X_19_48                       1.000000
X_20_24                       1.000000
X_21_28                       1.000000
X_22_47                       1.000000
X_23_47                       1.000000
X_24_49                       1.000000
X_25_31                       1.000000
X_26_42                       1.000000
X_27_37                       1.000000
X_28_37                       1.000000
X_29_49                       1.000000
X_30_49                       1.000000
X_31_18                       1.000000
X_32_9                        1.000000
X_33_37                       1.000000
X_34_31                       1.000000
X_35_39                       1.000000
X_36_15                       1.000000
X_37_16                       1.000000
X_38_13                       1.000000
X_39_18                       1.000000
X_40_9                        1.000000
X_41_14                       1.000000
X_42_37                       1.000000
X_43_14                       1.000000
X_44_48                       1.000000
X_45_29                       1.000000
X_46_29                       1.000000
X_47_23                       1.000000
X_48_37                       1.000000
X_49_49                       1.000000
X_50_47                       1.000000
X_51_23                       1.000000
X_52_14                       1.000000
X_53_16                       1.000000
X_54_48                       1.000000
X_55_9                        1.000000
X_56_32                       1.000000
X_57_29                       1.000000
X_58_23                       1.000000
X_59_43                       1.000000
X_60_47                       1.000000
X_61_32                       1.000000
X_62_16                       1.000000
X_63_42                       1.000000
X_64_8                        1.000000
X_65_45                       1.000000
X_66_29                       1.000000
X_67_40                       1.000000
X_68_25                       1.000000
X_69_9                        1.000000
X_70_25                       1.000000
X_71_7                        1.000000
X_72_48                       1.000000
X_73_31                       1.000000
X_74_48                       1.000000
X_75_32                       1.000000
X_76_11                       1.000000
X_77_46                       1.000000
X_78_14                       1.000000
X_79_27                       1.000000
X_80_9                        1.000000
X_81_44                       1.000000
X_82_48                       1.000000
X_83_11                       1.000000
X_84_32                       1.000000
X_85_47                       1.000000
X_86_49                       1.000000
X_87_18                       1.000000
X_88_50                       1.000000
X_89_42                       1.000000
X_90_46                       1.000000
X_91_22                       1.000000
X_92_31                       1.000000
X_93_17                       1.000000
X_94_37                       1.000000
X_95_24                       1.000000
X_96_14                       1.000000
X_97_49                       1.000000
X_98_50                       1.000000
X_99_14                       1.000000
X_100_18                      1.000000
X_101_48                      1.000000
X_102_11                      1.000000
X_103_42                      1.000000
X_104_32                      1.000000
X_105_47                      1.000000
X_106_16                      1.000000
X_107_37                      1.000000
X_108_24                      1.000000
X_109_24                      1.000000
X_110_14                      1.000000
X_111_30                      1.000000
X_112_37                      1.000000
X_113_16                      1.000000
X_114_47                      1.000000
X_115_38                      1.000000
X_116_9                       1.000000
X_117_34                      1.000000
X_118_48                      1.000000
X_119_21                      1.000000
X_120_37                      1.000000
X_121_45                      1.000000
X_122_37                      1.000000
X_123_37                      1.000000
X_124_37                      1.000000
X_125_14                      1.000000
X_126_30                      1.000000
X_127_37                      1.000000
X_128_14                      1.000000
X_129_48                      1.000000
X_130_42                      1.000000
X_131_46                      1.000000
X_132_37                      1.000000
X_133_37                      1.000000
X_134_16                      1.000000
X_135_23                      1.000000
X_136_49                      1.000000
X_137_1                       1.000000
X_138_48                      1.000000
X_139_45                      1.000000
X_140_47                      1.000000
X_141_48                      1.000000
X_142_49                      1.000000
X_143_49                      1.000000
X_144_48                      1.000000
X_145_48                      1.000000
X_146_49                      1.000000
X_147_21                      1.000000
X_148_47                      1.000000
X_149_10                      1.000000
X_150_48                      1.000000
X_151_23                      1.000000
X_152_48                      1.000000
X_153_45                      1.000000
X_154_32                      1.000000
X_155_24                      1.000000
X_156_37                      1.000000
X_157_32                      1.000000
X_158_48                      1.000000
X_159_49                      1.000000
X_160_48                      1.000000
X_161_49                      1.000000
X_162_46                      1.000000
X_163_37                      1.000000
X_164_30                      1.000000
X_165_17                      1.000000
X_166_42                      1.000000
X_167_32                      1.000000
X_168_48                      1.000000
X_169_11                      1.000000
X_170_47                      1.000000
X_171_37                      1.000000
X_172_37                      1.000000
X_173_37                      1.000000
X_174_16                      1.000000
X_175_42                      1.000000
X_176_38                      1.000000
X_177_48                      1.000000
X_178_42                      1.000000
X_179_47                      1.000000
X_180_37                      1.000000
X_181_40                      1.000000
X_182_45                      1.000000
X_183_22                      1.000000
X_184_47                      1.000000
X_185_6                       1.000000
X_186_20                      1.000000
X_187_46                      1.000000
X_188_37                      1.000000
X_189_45                      1.000000
X_190_49                      1.000000
X_191_37                      1.000000
X_192_37                      1.000000
X_193_42                      1.000000
X_194_14                      1.000000
X_195_8                       1.000000
X_196_14                      1.000000
X_197_14                      1.000000
X_198_48                      1.000000
X_199_10                      1.000000
X_200_36                      1.000000
X_201_21                      1.000000
X_202_32                      1.000000
X_203_37                      1.000000
X_204_48                      1.000000
X_205_21                      1.000000
X_206_19                      1.000000
X_207_37                      1.000000
X_208_42                      1.000000
X_209_35                      1.000000
X_210_16                      1.000000
X_211_28                      1.000000
X_212_37                      1.000000
X_213_48                      1.000000
X_214_39                      1.000000
X_215_1                       1.000000
X_216_32                      1.000000
X_217_32                      1.000000
X_218_47                      1.000000
X_219_22                      1.000000
X_220_37                      1.000000
X_221_42                      1.000000
X_222_24                      1.000000
X_223_42                      1.000000
X_224_14                      1.000000
X_225_48                      1.000000
X_226_37                      1.000000
X_227_46                      1.000000
X_228_35                      1.000000
X_229_45                      1.000000
X_230_49                      1.000000
X_231_29                      1.000000
X_232_48                      1.000000
X_233_40                      1.000000
X_234_11                      1.000000
X_235_37                      1.000000
X_236_46                      1.000000
X_237_29                      1.000000
X_238_22                      1.000000
X_239_26                      1.000000
X_240_14                      1.000000
X_241_37                      1.000000
X_242_35                      1.000000
X_243_42                      1.000000
X_244_48                      1.000000
X_245_37                      1.000000
X_246_32                      1.000000
X_247_24                      1.000000
X_248_16                      1.000000
X_249_15                      1.000000
X_250_7                       1.000000
X_251_24                      1.000000
X_252_48                      1.000000
X_253_1                       1.000000
X_254_16                      1.000000
X_255_38                      1.000000
X_256_11                      1.000000
X_257_33                      1.000000
X_258_13                      1.000000
X_259_1                       1.000000
X_260_45                      1.000000
X_261_14                      1.000000
X_262_25                      1.000000
X_263_42                      1.000000
X_264_46                      1.000000
X_265_11                      1.000000
X_266_30                      1.000000
X_267_42                      1.000000
X_268_29                      1.000000
X_269_42                      1.000000
X_270_3                       1.000000
X_271_30                      1.000000
X_272_46                      1.000000
X_273_30                      1.000000
X_274_37                      1.000000
X_275_42                      1.000000
X_276_47                      1.000000
X_277_19                      1.000000
X_278_48                      1.000000
X_279_32                      1.000000
X_280_4                       1.000000
X_281_48                      1.000000
X_282_45                      1.000000
X_283_1                       1.000000
X_284_18                      1.000000
X_285_48                      1.000000
X_286_48                      1.000000
X_287_14                      1.000000
X_288_48                      1.000000
X_289_16                      1.000000
X_290_25                      1.000000
X_291_31                      1.000000
X_292_37                      1.000000
X_293_35                      1.000000
X_294_41                      1.000000
X_295_40                      1.000000
X_296_37                      1.000000
X_297_49                      1.000000
X_298_37                      1.000000
X_299_25                      1.000000
X_300_10                      1.000000
X_301_22                      1.000000
X_302_42                      1.000000
X_303_46                      1.000000
X_304_4                       1.000000
X_305_32                      1.000000
X_306_47                      1.000000
X_307_42                      1.000000
X_308_45                      1.000000
X_309_32                      1.000000
X_310_24                      1.000000
X_311_46                      1.000000
X_312_44                      1.000000
X_313_47                      1.000000
X_314_38                      1.000000
X_315_16                      1.000000
X_316_12                      1.000000
X_317_32                      1.000000
X_318_42                      1.000000
X_319_12                      1.000000
X_320_38                      1.000000
X_321_48                      1.000000
X_322_18                      1.000000
X_323_47                      1.000000
X_324_32                      1.000000
X_325_21                      1.000000
X_326_16                      1.000000
X_327_5                       1.000000
X_328_11                      1.000000
X_329_32                      1.000000
X_330_34                      1.000000
X_331_11                      1.000000
X_332_42                      1.000000
X_333_13                      1.000000
X_334_47                      1.000000
X_335_22                      1.000000
X_336_49                      1.000000
X_337_28                      1.000000
X_338_37                      1.000000
X_339_38                      1.000000
X_340_45                      1.000000
X_341_16                      1.000000
X_342_16                      1.000000
X_343_46                      1.000000
X_344_49                      1.000000
X_345_46                      1.000000
X_346_34                      1.000000
X_347_45                      1.000000
X_348_16                      1.000000
X_349_40                      1.000000
X_350_32                      1.000000
X_351_13                      1.000000
X_352_32                      1.000000
X_353_33                      1.000000
X_354_37                      1.000000
X_355_18                      1.000000
X_356_13                      1.000000
X_357_47                      1.000000
X_358_38                      1.000000
X_359_14                      1.000000
X_360_46                      1.000000
X_361_37                      1.000000
X_362_48                      1.000000
X_363_3                       1.000000
X_364_9                       1.000000
X_365_1                       1.000000
X_366_42                      1.000000
X_367_47                      1.000000
X_368_44                      1.000000
X_369_49                      1.000000
X_370_38                      1.000000
X_371_42                      1.000000
X_372_15                      1.000000
X_373_38                      1.000000
X_374_4                       1.000000
X_375_24                      1.000000
X_376_24                      1.000000
X_377_13                      1.000000
X_378_32                      1.000000
X_379_37                      1.000000
X_380_49                      1.000000
X_381_36                      1.000000
X_382_30                      1.000000
X_383_45                      1.000000
X_384_13                      1.000000
X_385_45                      1.000000
X_386_42                      1.000000
X_387_46                      1.000000
X_388_29                      1.000000
X_389_11                      1.000000
X_390_9                       1.000000
X_391_2                       1.000000
X_392_25                      1.000000
X_393_16                      1.000000
X_394_12                      1.000000
X_395_49                      1.000000
X_396_9                       1.000000
X_397_48                      1.000000
X_398_32                      1.000000
X_399_34                      1.000000
X_400_14                      1.000000
X_401_14                      1.000000
X_402_45                      1.000000
X_403_45                      1.000000
X_404_16                      1.000000
X_405_48                      1.000000
X_406_8                       1.000000
X_407_37                      1.000000
X_408_32                      1.000000
X_409_17                      1.000000
X_410_24                      1.000000
X_411_37                      1.000000
X_412_49                      1.000000
X_413_38                      1.000000
X_414_9                       1.000000
X_415_32                      1.000000
X_416_32                      1.000000
X_417_26                      1.000000
X_418_35                      1.000000
X_419_30                      1.000000
X_420_35                      1.000000
X_421_9                       1.000000
X_422_7                       1.000000
X_423_11                      1.000000
X_424_32                      1.000000
X_425_42                      1.000000
X_426_37                      1.000000
X_427_11                      1.000000
X_428_42                      1.000000
X_429_37                      1.000000
X_430_29                      1.000000
X_431_11                      1.000000
X_432_37                      1.000000
X_433_46                      1.000000
X_434_7                       1.000000
X_435_43                      1.000000
X_436_32                      1.000000
X_437_15                      1.000000
X_438_9                       1.000000
X_439_37                      1.000000
X_440_13                      1.000000
X_441_25                      1.000000
X_442_32                      1.000000
X_443_14                      1.000000
X_444_11                      1.000000
X_445_45                      1.000000
X_446_46                      1.000000
X_447_24                      1.000000
X_448_47                      1.000000
X_449_48                      1.000000
X_450_47                      1.000000
X_451_11                      1.000000
X_452_41                      1.000000
X_453_12                      1.000000
X_454_13                      1.000000
X_455_23                      1.000000
X_456_49                      1.000000
X_457_49                      1.000000
X_458_37                      1.000000
X_459_37                      1.000000
X_460_32                      1.000000
X_461_25                      1.000000
X_462_34                      1.000000
X_463_11                      1.000000
X_464_30                      1.000000
X_465_49                      1.000000
X_466_37                      1.000000
X_467_29                      1.000000
X_468_1                       1.000000
X_469_2                       1.000000
X_470_46                      1.000000
X_471_14                      1.000000
X_472_49                      1.000000
X_473_49                      1.000000
X_474_37                      1.000000
X_475_31                      1.000000
X_476_32                      1.000000
X_477_49                      1.000000
X_478_1                       1.000000
X_479_32                      1.000000
X_480_37                      1.000000
X_481_30                      1.000000
X_482_29                      1.000000
X_483_49                      1.000000
X_484_24                      1.000000
X_485_3                       1.000000
X_486_32                      1.000000
X_487_14                      1.000000
X_488_38                      1.000000
X_489_49                      1.000000
X_490_25                      1.000000
X_491_12                      1.000000
X_492_49                      1.000000
X_493_42                      1.000000
X_494_24                      1.000000
X_495_38                      1.000000
X_496_11                      1.000000
X_497_5                       1.000000
X_498_36                      1.000000
X_499_32                      1.000000
X_500_47                      1.000000
All other variables in the range 1-25001 are 0.
